NAME : amz1910.117959_114959.tour
COMMENT : Cost = 117959_114959
COMMENT : Found by LKH-AMZ [Keld Helsgaun] Sun May 11 13:33:27 2025
COMMENT : TW viol.: 0 #: 0
TYPE : TOUR
DIMENSION : 141
TOUR_SECTION
10
23
27
6
102
47
5
55
41
137
3
110
8
53
42
35
108
2
85
25
69
107
29
12
86
56
32
63
44
64
135
74
26
112
71
61
18
57
132
70
13
62
68
16
20
119
60
7
87
95
140
43
103
11
125
99
121
115
100
126
128
24
134
127
34
36
83
59
96
130
21
77
120
114
45
67
138
109
66
28
40
90
91
97
82
76
37
93
104
123
106
136
81
79
1
73
15
30
39
19
122
4
14
116
50
88
89
22
139
58
105
117
49
92
75
33
80
131
94
78
98
141
9
133
46
111
65
84
54
31
101
38
129
72
113
52
51
17
124
118
48
-1
EOF
